FourierSAT_Github_AIJ/benchmarks/MAXSAT_benchmarks/crafted/3/bipartite/maxcut-140-630-0.7/maxcut-140-630-0.7-12.cnf
c strEdges: 189  randomEdges: 441 
c degrees:  2  3 
c girth: 10 max: 8.032766  
c Hgirth mixed MAXCUT instance
c generated from an undirected graph
c to solve unweighted MaxCut
p cnf 140 1260
76 104 0
-76 -104 0
76 52 0
-76 -52 0
76 129 0
-76 -129 0
122 1 0
-122 -1 0
122 47 0
-122 -47 0
122 3 0
-122 -3 0
130 136 0
-130 -136 0
130 8 0
-130 -8 0
130 21 0
-130 -21 0
91 12 0
-91 -12 0
91 5 0
-91 -5 0
63 135 0
-63 -135 0
63 28 0
-63 -28 0
63 124 0
-63 -124 0
64 90 0
-64 -90 0
64 72 0
-64 -72 0
45 87 0
-45 -87 0
45 22 0
-45 -22 0
45 132 0
-45 -132 0
67 24 0
-67 -24 0
67 109 0
-67 -109 0
67 102 0
-67 -102 0
59 102 0
-59 -102 0
59 124 0
-59 -124 0
59 1 0
-59 -1 0
32 21 0
-32 -21 0
32 93 0
-32 -93 0
32 135 0
-32 -135 0
10 20 0
-10 -20 0
10 24 0
-10 -24 0
10 12 0
-10 -12 0
139 80 0
-139 -80 0
139 72 0
-139 -72 0
139 54 0
-139 -54 0
115 65 0
-115 -65 0
115 20 0
-115 -20 0
115 35 0
-115 -35 0
60 118 0
-60 -118 0
60 119 0
-60 -119 0
60 39 0
-60 -39 0
11 83 0
-11 -83 0
11 13 0
-11 -13 0
11 95 0
-11 -95 0
40 28 0
-40 -28 0
40 33 0
-40 -33 0
7 33 0
-7 -33 0
7 84 0
-7 -84 0
7 71 0
-7 -71 0
36 99 0
-36 -99 0
36 95 0
-36 -95 0
36 58 0
-36 -58 0
44 34 0
-44 -34 0
44 87 0
-44 -87 0
44 83 0
-44 -83 0
133 54 0
-133 -54 0
133 4 0
-133 -4 0
51 30 0
-51 -30 0
51 103 0
-51 -103 0
69 8 0
-69 -8 0
69 54 0
-69 -54 0
69 48 0
-69 -48 0
2 88 0
-2 -88 0
2 99 0
-2 -99 0
128 52 0
-128 -52 0
128 79 0
-128 -79 0
128 48 0
-128 -48 0
42 5 0
-42 -5 0
42 83 0
-42 -83 0
92 17 0
-92 -17 0
92 28 0
-92 -28 0
46 109 0
-46 -109 0
46 15 0
-46 -15 0
46 94 0
-46 -94 0
27 98 0
-27 -98 0
27 52 0
-27 -52 0
25 95 0
-25 -95 0
25 70 0
-25 -70 0
74 119 0
-74 -119 0
74 77 0
-74 -77 0
74 71 0
-74 -71 0
85 70 0
-85 -70 0
85 94 0
-85 -94 0
106 35 0
-106 -35 0
106 77 0
-106 -77 0
53 72 0
-53 -72 0
53 99 0
-53 -99 0
53 114 0
-53 -114 0
131 78 0
-131 -78 0
131 39 0
-131 -39 0
131 61 0
-131 -61 0
37 26 0
-37 -26 0
37 15 0
-37 -15 0
37 80 0
-37 -80 0
23 84 0
-23 -84 0
23 112 0
-23 -112 0
23 98 0
-23 -98 0
101 124 0
-101 -124 0
101 126 0
-101 -126 0
101 56 0
-101 -56 0
113 112 0
-113 -112 0
113 19 0
-113 -19 0
113 65 0
-113 -65 0
138 13 0
-138 -13 0
138 4 0
-138 -4 0
49 77 0
-49 -77 0
49 41 0
-49 -41 0
9 81 0
-9 -81 0
9 18 0
-9 -18 0
105 58 0
-105 -58 0
105 20 0
-105 -20 0
105 21 0
-105 -21 0
116 41 0
-116 -41 0
116 89 0
-116 -89 0
116 86 0
-116 -86 0
55 3 0
-55 -3 0
55 78 0
-55 -78 0
108 39 0
-108 -39 0
108 17 0
-108 -17 0
108 26 0
-108 -26 0
96 19 0
-96 -19 0
96 81 0
-96 -81 0
96 118 0
-96 -118 0
107 114 0
-107 -114 0
107 110 0
-107 -110 0
107 102 0
-107 -102 0
120 103 0
-120 -103 0
120 86 0
-120 -86 0
120 88 0
-120 -88 0
6 61 0
-6 -61 0
6 12 0
-6 -12 0
6 30 0
-6 -30 0
127 132 0
-127 -132 0
127 80 0
-127 -80 0
127 65 0
-127 -65 0
31 129 0
-31 -129 0
31 90 0
-31 -90 0
31 24 0
-31 -24 0
82 71 0
-82 -71 0
82 90 0
-82 -90 0
117 126 0
-117 -126 0
117 98 0
-117 -98 0
97 110 0
-97 -110 0
97 16 0
-97 -16 0
97 38 0
-97 -38 0
134 121 0
-134 -121 0
134 89 0
-134 -89 0
134 19 0
-134 -19 0
75 18 0
-75 -18 0
75 70 0
-75 -70 0
75 38 0
-75 -38 0
137 93 0
-137 -93 0
137 104 0
-137 -104 0
137 73 0
-137 -73 0
111 73 0
-111 -73 0
111 5 0
-111 -5 0
111 81 0
-111 -81 0
50 89 0
-50 -89 0
50 109 0
-50 -109 0
123 15 0
-123 -15 0
123 126 0
-123 -126 0
123 73 0
-123 -73 0
29 86 0
-29 -86 0
29 34 0
-29 -34 0
66 22 0
-66 -22 0
66 1 0
-66 -1 0
66 136 0
-66 -136 0
68 48 0
-68 -48 0
68 121 0
-68 -121 0
68 16 0
-68 -16 0
100 16 0
-100 -16 0
100 61 0
-100 -61 0
100 93 0
-100 -93 0
140 56 0
-140 -56 0
140 35 0
-140 -35 0
140 13 0
-140 -13 0
43 47 0
-43 -47 0
43 84 0
-43 -84 0
43 88 0
-43 -88 0
62 4 0
-62 -4 0
62 18 0
-62 -18 0
62 103 0
-62 -103 0
14 38 0
-14 -38 0
14 33 0
-14 -33 0
14 87 0
-14 -87 0
125 79 0
-125 -79 0
125 34 0
-125 -34 0
57 94 0
-57 -94 0
57 3 0
-57 -3 0
57 79 0
-57 -79 0
11 116 0
-11 -116 0
102 41 0
-102 -41 0
104 20 0
-104 -20 0
82 65 0
-82 -65 0
53 34 0
-53 -34 0
27 14 0
-27 -14 0
101 52 0
-101 -52 0
68 140 0
-68 -140 0
100 30 0
-100 -30 0
1 34 0
-1 -34 0
74 98 0
-74 -98 0
6 22 0
-6 -22 0
55 107 0
-55 -107 0
75 35 0
-75 -35 0
72 19 0
-72 -19 0
52 84 0
-52 -84 0
119 38 0
-119 -38 0
140 5 0
-140 -5 0
6 75 0
-6 -75 0
82 77 0
-82 -77 0
122 24 0
-122 -24 0
74 137 0
-74 -137 0
85 12 0
-85 -12 0
137 14 0
-137 -14 0
139 20 0
-139 -20 0
111 77 0
-111 -77 0
80 48 0
-80 -48 0
120 28 0
-120 -28 0
85 111 0
-85 -111 0
43 3 0
-43 -3 0
18 89 0
-18 -89 0
7 65 0
-7 -65 0
7 28 0
-7 -28 0
102 35 0
-102 -35 0
74 33 0
-74 -33 0
135 33 0
-135 -33 0
139 112 0
-139 -112 0
51 82 0
-51 -82 0
92 109 0
-92 -109 0
28 109 0
-28 -109 0
23 134 0
-23 -134 0
11 78 0
-11 -78 0
121 48 0
-121 -48 0
115 138 0
-115 -138 0
20 30 0
-20 -30 0
2 48 0
-2 -48 0
127 90 0
-127 -90 0
138 12 0
-138 -12 0
7 66 0
-7 -66 0
89 86 0
-89 -86 0
90 112 0
-90 -112 0
17 94 0
-17 -94 0
30 18 0
-30 -18 0
88 47 0
-88 -47 0
51 71 0
-51 -71 0
126 48 0
-126 -48 0
114 132 0
-114 -132 0
128 31 0
-128 -31 0
136 70 0
-136 -70 0
122 36 0
-122 -36 0
66 73 0
-66 -73 0
36 121 0
-36 -121 0
52 48 0
-52 -48 0
43 13 0
-43 -13 0
128 61 0
-128 -61 0
97 99 0
-97 -99 0
84 79 0
-84 -79 0
128 14 0
-128 -14 0
108 43 0
-108 -43 0
91 103 0
-91 -103 0
115 93 0
-115 -93 0
115 7 0
-115 -7 0
70 129 0
-70 -129 0
113 116 0
-113 -116 0
140 33 0
-140 -33 0
85 39 0
-85 -39 0
115 83 0
-115 -83 0
36 48 0
-36 -48 0
63 92 0
-63 -92 0
64 38 0
-64 -38 0
101 107 0
-101 -107 0
133 20 0
-133 -20 0
98 121 0
-98 -121 0
131 135 0
-131 -135 0
101 83 0
-101 -83 0
121 18 0
-121 -18 0
50 54 0
-50 -54 0
136 5 0
-136 -5 0
64 136 0
-64 -136 0
80 71 0
-80 -71 0
66 52 0
-66 -52 0
2 134 0
-2 -134 0
96 1 0
-96 -1 0
131 124 0
-131 -124 0
2 28 0
-2 -28 0
9 80 0
-9 -80 0
35 47 0
-35 -47 0
131 109 0
-131 -109 0
41 3 0
-41 -3 0
11 46 0
-11 -46 0
111 70 0
-111 -70 0
36 129 0
-36 -129 0
52 78 0
-52 -78 0
112 19 0
-112 -19 0
85 48 0
-85 -48 0
45 16 0
-45 -16 0
76 23 0
-76 -23 0
105 123 0
-105 -123 0
91 105 0
-91 -105 0
21 86 0
-21 -86 0
52 61 0
-52 -61 0
31 1 0
-31 -1 0
45 42 0
-45 -42 0
14 65 0
-14 -65 0
41 110 0
-41 -110 0
46 24 0
-46 -24 0
96 83 0
-96 -83 0
53 101 0
-53 -101 0
128 119 0
-128 -119 0
91 136 0
-91 -136 0
91 42 0
-91 -42 0
88 15 0
-88 -15 0
17 72 0
-17 -72 0
69 31 0
-69 -31 0
135 22 0
-135 -22 0
42 46 0
-42 -46 0
59 18 0
-59 -18 0
24 124 0
-24 -124 0
18 94 0
-18 -94 0
52 38 0
-52 -38 0
42 30 0
-42 -30 0
60 57 0
-60 -57 0
70 110 0
-70 -110 0
42 100 0
-42 -100 0
30 72 0
-30 -72 0
87 30 0
-87 -30 0
65 114 0
-65 -114 0
27 125 0
-27 -125 0
7 107 0
-7 -107 0
76 1 0
-76 -1 0
104 24 0
-104 -24 0
127 118 0
-127 -118 0
122 19 0
-122 -19 0
69 49 0
-69 -49 0
52 93 0
-52 -93 0
2 71 0
-2 -71 0
67 93 0
-67 -93 0
59 72 0
-59 -72 0
9 89 0
-9 -89 0
7 25 0
-7 -25 0
127 99 0
-127 -99 0
49 135 0
-49 -135 0
8 58 0
-8 -58 0
97 26 0
-97 -26 0
36 111 0
-36 -111 0
33 5 0
-33 -5 0
128 81 0
-128 -81 0
60 85 0
-60 -85 0
112 81 0
-112 -81 0
10 50 0
-10 -50 0
37 121 0
-37 -121 0
133 126 0
-133 -126 0
12 95 0
-12 -95 0
2 125 0
-2 -125 0
63 65 0
-63 -65 0
69 125 0
-69 -125 0
117 19 0
-117 -19 0
42 127 0
-42 -127 0
32 120 0
-32 -120 0
11 110 0
-11 -110 0
138 108 0
-138 -108 0
2 13 0
-2 -13 0
136 52 0
-136 -52 0
14 88 0
-14 -88 0
92 5 0
-92 -5 0
111 102 0
-111 -102 0
23 68 0
-23 -68 0
138 18 0
-138 -18 0
25 52 0
-25 -52 0
67 40 0
-67 -40 0
109 70 0
-109 -70 0
136 26 0
-136 -26 0
130 14 0
-130 -14 0
115 19 0
-115 -19 0
139 47 0
-139 -47 0
116 65 0
-116 -65 0
45 43 0
-45 -43 0
7 6 0
-7 -6 0
99 72 0
-99 -72 0
80 114 0
-80 -114 0
27 61 0
-27 -61 0
63 104 0
-63 -104 0
49 99 0
-49 -99 0
112 86 0
-112 -86 0
51 113 0
-51 -113 0
77 22 0
-77 -22 0
133 75 0
-133 -75 0
135 90 0
-135 -90 0
104 54 0
-104 -54 0
92 79 0
-92 -79 0
14 72 0
-14 -72 0
70 48 0
-70 -48 0
31 4 0
-31 -4 0
138 70 0
-138 -70 0
32 80 0
-32 -80 0
63 2 0
-63 -2 0
32 104 0
-32 -104 0
50 114 0
-50 -114 0
86 56 0
-86 -56 0
131 71 0
-131 -71 0
46 135 0
-46 -135 0
45 78 0
-45 -78 0
138 72 0
-138 -72 0
41 4 0
-41 -4 0
99 8 0
-99 -8 0
37 48 0
-37 -48 0
49 86 0
-49 -86 0
138 81 0
-138 -81 0
133 86 0
-133 -86 0
67 17 0
-67 -17 0
59 77 0
-59 -77 0
5 94 0
-5 -94 0
106 4 0
-106 -4 0
139 75 0
-139 -75 0
60 30 0
-60 -30 0
111 8 0
-111 -8 0
116 54 0
-116 -54 0
99 98 0
-99 -98 0
14 118 0
-14 -118 0
35 41 0
-35 -41 0
85 6 0
-85 -6 0
36 77 0
-36 -77 0
44 85 0
-44 -85 0
106 22 0
-106 -22 0
44 42 0
-44 -42 0
116 82 0
-116 -82 0
136 112 0
-136 -112 0
54 73 0
-54 -73 0
69 16 0
-69 -16 0
88 70 0
-88 -70 0
48 16 0
-48 -16 0
25 131 0
-25 -131 0
27 121 0
-27 -121 0
71 18 0
-71 -18 0
21 84 0
-21 -84 0
131 22 0
-131 -22 0
138 3 0
-138 -3 0
83 88 0
-83 -88 0
112 110 0
-112 -110 0
68 3 0
-68 -3 0
82 43 0
-82 -43 0
85 136 0
-85 -136 0
35 86 0
-35 -86 0
113 121 0
-113 -121 0
63 55 0
-63 -55 0
69 107 0
-69 -107 0
21 15 0
-21 -15 0
80 5 0
-80 -5 0
63 108 0
-63 -108 0
9 110 0
-9 -110 0
131 19 0
-131 -19 0
59 83 0
-59 -83 0
76 109 0
-76 -109 0
119 78 0
-119 -78 0
6 26 0
-6 -26 0
53 1 0
-53 -1 0
51 84 0
-51 -84 0
62 8 0
-62 -8 0
23 35 0
-23 -35 0
117 100 0
-117 -100 0
113 114 0
-113 -114 0
33 86 0
-33 -86 0
34 84 0
-34 -84 0
118 16 0
-118 -16 0
3 132 0
-3 -132 0
42 1 0
-42 -1 0
63 105 0
-63 -105 0
35 110 0
-35 -110 0
92 24 0
-92 -24 0
27 19 0
-27 -19 0
43 48 0
-43 -48 0
44 23 0
-44 -23 0
138 71 0
-138 -71 0
50 77 0
-50 -77 0
135 94 0
-135 -94 0
50 35 0
-50 -35 0
64 11 0
-64 -11 0
107 13 0
-107 -13 0
108 94 0
-108 -94 0
69 90 0
-69 -90 0
10 48 0
-10 -48 0
74 132 0
-74 -132 0
35 124 0
-35 -124 0
51 109 0
-51 -109 0
125 1 0
-125 -1 0
69 77 0
-69 -77 0
87 65 0
-87 -65 0
6 140 0
-6 -140 0
137 58 0
-137 -58 0
23 34 0
-23 -34 0
123 90 0
-123 -90 0
62 125 0
-62 -125 0
37 65 0
-37 -65 0
9 50 0
-9 -50 0
134 65 0
-134 -65 0
7 94 0
-7 -94 0
97 1 0
-97 -1 0
40 136 0
-40 -136 0
30 4 0
-30 -4 0
8 17 0
-8 -17 0
138 103 0
-138 -103 0
43 132 0
-43 -132 0
52 5 0
-52 -5 0
140 118 0
-140 -118 0
139 9 0
-139 -9 0
130 50 0
-130 -50 0
34 17 0
-34 -17 0
9 100 0
-9 -100 0
128 96 0
-128 -96 0
115 117 0
-115 -117 0
81 16 0
-81 -16 0
49 35 0
-49 -35 0
50 43 0
-50 -43 0
74 117 0
-74 -117 0
2 38 0
-2 -38 0
124 13 0
-124 -13 0
17 109 0
-17 -109 0
1 52 0
-1 -52 0
120 95 0
-120 -95 0
25 65 0
-25 -65 0
96 43 0
-96 -43 0
20 77 0
-20 -77 0
74 1 0
-74 -1 0
26 94 0
-26 -94 0
139 88 0
-139 -88 0
25 110 0
-25 -110 0
29 89 0
-29 -89 0
74 82 0
-74 -82 0
9 132 0
-9 -132 0
49 110 0
-49 -110 0
100 18 0
-100 -18 0
7 95 0
-7 -95 0
113 107 0
-113 -107 0
137 87 0
-137 -87 0
55 124 0
-55 -124 0
128 78 0
-128 -78 0
53 28 0
-53 -28 0
36 20 0
-36 -20 0
53 41 0
-53 -41 0
11 101 0
-11 -101 0
30 78 0
-30 -78 0
7 58 0
-7 -58 0
37 70 0
-37 -70 0
95 56 0
-95 -56 0
40 57 0
-40 -57 0
134 48 0
-134 -48 0
46 132 0
-46 -132 0
136 12 0
-136 -12 0
91 60 0
-91 -60 0
20 47 0
-20 -47 0
134 73 0
-134 -73 0
80 52 0
-80 -52 0
50 22 0
-50 -22 0
58 56 0
-58 -56 0
44 86 0
-44 -86 0
118 109 0
-118 -109 0
49 116 0
-49 -116 0
36 125 0
-36 -125 0
119 71 0
-119 -71 0
42 125 0
-42 -125 0
74 43 0
-74 -43 0
136 88 0
-136 -88 0
116 26 0
-116 -26 0
117 56 0
-117 -56 0
113 5 0
-113 -5 0
110 86 0
-110 -86 0
122 39 0
-122 -39 0
96 71 0
-96 -71 0
100 110 0
-100 -110 0
42 66 0
-42 -66 0
133 84 0
-133 -84 0
126 110 0
-126 -110 0
42 50 0
-42 -50 0
28 121 0
-28 -121 0
91 6 0
-91 -6 0
123 136 0
-123 -136 0
138 137 0
-138 -137 0
102 109 0
-102 -109 0
91 38 0
-91 -38 0
20 5 0
-20 -5 0
71 94 0
-71 -94 0
35 103 0
-35 -103 0
66 41 0
-66 -41 0
140 47 0
-140 -47 0
37 95 0
-37 -95 0
29 140 0
-29 -140 0
138 77 0
-138 -77 0
76 35 0
-76 -35 0
63 8 0
-63 -8 0
116 123 0
-116 -123 0
69 101 0
-69 -101 0
50 34 0
-50 -34 0
107 47 0
-107 -47 0
23 132 0
-23 -132 0
138 80 0
-138 -80 0
133 129 0
-133 -129 0
131 136 0
-131 -136 0
27 20 0
-27 -20 0
64 140 0
-64 -140 0
20 52 0
-20 -52 0
117 88 0
-117 -88 0
115 75 0
-115 -75 0
113 88 0
-113 -88 0
138 55 0
-138 -55 0
59 101 0
-59 -101 0
138 17 0
-138 -17 0
12 52 0
-12 -52 0
75 54 0
-75 -54 0
60 1 0
-60 -1 0
58 93 0
-58 -93 0
137 70 0
-137 -70 0
64 82 0
-64 -82 0
111 18 0
-111 -18 0
135 86 0
-135 -86 0
51 55 0
-51 -55 0
100 62 0
-100 -62 0
139 41 0
-139 -41 0
10 90 0
-10 -90 0
98 35 0
-98 -35 0
74 34 0
-74 -34 0
50 104 0
-50 -104 0
50 30 0
-50 -30 0
28 98 0
-28 -98 0
60 111 0
-60 -111 0
123 140 0
-123 -140 0
64 98 0
-64 -98 0
134 112 0
-134 -112 0
8 39 0
-8 -39 0
100 43 0
-100 -43 0
139 140 0
-139 -140 0
47 79 0
-47 -79 0
