FourierSAT_Github_AIJ/res/fs_1core/maxcut-140-630-0.7-12.cnf.txt
o 188
o 186
